0000000000000000000000000000000000000000000000000000000000000000000000000000000000000000000000000000,0000000000000000000000000000000000000000000000000000000000000000000000000000000000000000000000000000,0000000000000000000000000000000000000000000000000000000000000000000000000000000000000000000000000000,0000000000000000000000000000000000000000000000000000000000000000000000000000000000000000000000000000,1010000000000000010000000000000000000000000000010000101000000000000010001000000000000100000000000000,0000000000000000000000000000000000000000000000000000000000000000000000000000000000000000000000000000,0000100000000100000000001000000000010000101000100000000010000000010100100000000000101000100000110000,0000000000000000000000000000000000000000000000000000000000000000000000000000000000000000000000000000,0000000000000000000000000000000000000000000000000000000000000000000000000000000000000000000000000000,0000010000000000100011000000000100000000000000000010000100000000000000000000100100000000000100001000,0000001001001000000100100000000000100101000101001000010000100110001001010000000000000010010001000000,0000000000000000000000000000000000000000000000000000000000000000000000000000000000000000000000000000,0000000100110010001000000010100010000010010000000100000001000000100000000001010001000000000000000000,0000000000000000000000000000000000000000000000000000000000000000000000000000000000000000000000000000,0000000000000000000000000000000000000000000000000000000000000000000000000000000000000000000000000000,0000000000000000000000000000000000000000000000000000000000000000000000000000000000000000000000000000,0000000000000000000000000000000000000000000000000000000000000000000000000000000000000000000000000000,0001000010000000000000010101000000001000000010000000000000010001000000000100001010000000001010000111,0000000000000000000000000000000000000000000000000000000000000000000000000000000000000000000000000000,0100000000000001000000000000011001000000000000000001000000001000000000000010000000010001000000000000,[],[],[],[],[9, 0, 7, 0, 0, 0, 0, 0, 0, 0, 0, 0, 0, 0, 0, 0, 0, 7, 0, 0, 0, 0, 0, 0, 0, 0, 0, 0, 0, 0, 0, 0, 0, 0, 0, 0, 0, 0, 0, 0, 0, 0, 0, 0, 0, 0, 0, 9, 0, 0, 0, 0, 9, 0, 7, 0, 0, 0, 0, 0, 0, 0, 0, 0, 0, 0, 0, 0, 9, 0, 0, 0, 9, 0, 0, 0, 0, 0, 0, 0, 0, 0, 0, 0, 0, 9, 0, 0, 0, 0, 0, 0, 0, 0, 0, 0, 0, 0, 0, 0],[],[0, 0, 0, 0, 6, 0, 0, 0, 0, 0, 0, 0, 0, 19, 0, 0, 0, 0, 0, 0, 0, 0, 0, 0, 6, 0, 0, 0, 0, 0, 0, 0, 0, 0, 0, 19, 0, 0, 0, 0, 19, 0, 6, 0, 0, 0, 5, 0, 0, 0, 0, 0, 0, 0, 0, 0, 19, 0, 0, 0, 0, 0, 0, 0, 0, 6, 0, 5, 0, 0, 6, 0, 0, 0, 0, 0, 0, 0, 0, 0, 0, 0, 19, 0, 19, 0, 0, 0, 6, 0, 0, 0, 0, 0, 6, 19, 0, 0, 0, 0],[],[],[0, 0, 0, 0, 0, 3, 0, 0, 0, 0, 0, 0, 0, 0, 0, 0, 4, 0, 0, 0, 3, 3, 0, 0, 0, 0, 0, 0, 0, 0, 0, 4, 0, 0, 0, 0, 0, 0, 0, 0, 0, 0, 0, 0, 0, 0, 0, 0, 0, 0, 12, 0, 0, 0, 0, 12, 0, 0, 0, 0, 0, 0, 0, 0, 0, 0, 0, 0, 0, 0, 0, 0, 0, 0, 0, 0, 3, 0, 0, 3, 0, 0, 0, 0, 0, 0, 0, 0, 0, 0, 0, 3, 0, 0, 0, 0, 12, 0, 0, 0],[0, 0, 0, 0, 0, 0, 15, 0, 0, 15, 0, 0, 15, 0, 0, 0, 0, 0, 0, 13, 0, 0, 10, 0, 0, 0, 0, 0, 0, 0, 0, 0, 0, 0, 15, 0, 0, 13, 0, 13, 0, 0, 0, 13, 0, 15, 0, 0, 13, 0, 0, 0, 0, 15, 0, 0, 0, 0, 10, 0, 0, 15, 15, 0, 0, 0, 10, 0, 0, 15, 0, 15, 0, 0, 0, 0, 0, 0, 0, 0, 0, 0, 0, 0, 0, 0, 10, 0, 0, 10, 0, 0, 0, 13, 0, 0, 0, 0, 0, 0],[],[0, 0, 0, 0, 0, 0, 0, 1, 0, 0, 20, 20, 0, 0, 2, 0, 0, 0, 2, 0, 0, 0, 0, 0, 0, 0, 2, 0, 1, 0, 0, 0, 2, 0, 0, 0, 0, 0, 1, 0, 0, 20, 0, 0, 0, 0, 0, 0, 0, 2, 0, 0, 0, 0, 0, 0, 0, 1, 0, 0, 0, 0, 0, 0, 2, 0, 0, 0, 0, 0, 0, 0, 0, 0, 0, 20, 0, 1, 0, 0, 0, 1, 0, 0, 0, 0, 0, 0, 0, 0, 0, 0, 0, 0, 0, 0, 0, 0, 0, 0],[],[],[],[],[0, 0, 0, 14, 0, 0, 0, 0, 14, 0, 0, 0, 0, 0, 0, 0, 0, 0, 0, 0, 0, 0, 0, 8, 0, 8, 0, 8, 0, 0, 0, 0, 0, 0, 0, 0, 17, 0, 0, 0, 0, 0, 0, 0, 14, 0, 0, 0, 0, 0, 0, 0, 0, 0, 0, 0, 0, 0, 0, 14, 0, 0, 0, 14, 0, 0, 0, 0, 0, 0, 0, 0, 0, 8, 0, 0, 0, 0, 14, 0, 8, 0, 0, 0, 0, 0, 0, 0, 0, 0, 17, 0, 17, 0, 0, 0, 0, 17, 14, 17],[],[0, 18, 0, 0, 0, 0, 0, 0, 0, 0, 0, 0, 0, 0, 0, 16, 0, 0, 0, 0, 0, 0, 0, 0, 0, 0, 0, 0, 0, 18, 18, 0, 0, 18, 0, 0, 0, 0, 0, 0, 0, 0, 0, 0, 0, 0, 0, 0, 0, 0, 0, 16, 0, 0, 0, 0, 0, 0, 0, 0, 18, 0, 0, 0, 0, 0, 0, 0, 0, 0, 0, 0, 0, 0, 18, 0, 0, 0, 0, 0, 0, 0, 0, 16, 0, 0, 0, 11, 0, 0, 0, 0, 0, 0, 0, 0, 0, 0, 0, 0][81, 77, 28, 7, 38, 57],[49, 32, 64, 14, 26, 18],[76, 79, 21, 5, 20, 91],[31, 16],[46, 67],[24, 65, 94, 70, 42, 4, 88],[2, 54, 17],[25, 73, 27, 23, 80],[47, 0, 68, 72, 85, 52],[58, 86, 89, 22, 66],[87],[50, 55, 96],[39, 19, 37, 93, 48, 43],[3, 63, 78, 8, 44, 98, 59],[34, 53, 61, 45, 69, 9, 62, 12, 6, 71],[51, 83, 15],[97, 36, 99, 90, 92],[33, 1, 30, 29, 74, 60],[82, 84, 35, 40, 56, 13, 95],[41, 75, 10, 11]
0000000000000000000000000000000000000000000000000000000000000000000000000000000000000000000000000000,0000000000000000000000000000000000000000000000000000000000000000000000000000000000000000000000000000,0000000000000000000000000000000000000000000000000000000000000000000000000000000000000000000000000000,0000000000000000000000000000000000000000000000000000000000000000000000000000000000000000000000000000,0000000000000000000000000000000000000000000000000000000000000000000000000000000000000000000000000000,0000000100110010000000000001100010000000010010000100000001000000100000000101000010000000001000000010,0000000000000000000000000000000000000000000000000000000000000000000000000000000000000000000000000000,0000011001000000100011100010000100100010000100000010000100000000000000010000100100000000010100001000,0000100000001000000100001000000000010101100001001000010000100110001001100000000000101010000001110000,0000000000000000000000000000000000000000000000000000000000000000000000000000000000000000000000000000,0000000000000000000000000000000000000000000000000000000000000000000000000000000000000000000000000000,0000000000000000000000000000000000000000000000000000000000000000000000000000000000000000000000000000,0000000000000000000000000000000000000000000000000000000000000000000000000000000000000000000000000000,0011000010000000001000010100000000001000001000100000100010010001010100000000011001010000000000000000,0000000000000000000000000000000000000000000000000000000000000000000000000000000000000000000000000000,0000000000000000000000000000000000000000000000000000000000000000000000000000000000000000000000000000,0000000000000000000000000000000000000000000000000000000000000000000000000000000000000000000000000000,0000000000000000000000000000000000000000000000000000000000000000000000000000000000000000000000000000,0000000000000000000000000000000000000000000000000000000000000000000000000000000000000000000000000000,1100000000000101010000000000011001000000000000010001001000001000000010001010000000000101100010000101,[],[],[],[],[],[0, 0, 0, 0, 0, 0, 0, 11, 0, 0, 9, 11, 0, 0, 16, 0, 0, 0, 0, 0, 0, 0, 0, 0, 0, 0, 0, 14, 14, 0, 0, 0, 11, 0, 0, 0, 0, 0, 0, 0, 0, 9, 0, 0, 9, 0, 0, 0, 0, 9, 0, 0, 0, 0, 0, 0, 0, 16, 0, 0, 0, 0, 0, 0, 16, 0, 0, 0, 0, 0, 0, 0, 0, 11, 0, 11, 0, 0, 0, 0, 11, 0, 0, 0, 0, 0, 0, 0, 0, 0, 14, 0, 0, 0, 0, 0, 0, 0, 9, 0],[],[0, 0, 0, 0, 0, 17, 2, 0, 0, 5, 0, 0, 0, 0, 0, 0, 5, 0, 0, 0, 5, 8, 2, 0, 0, 0, 5, 0, 0, 0, 0, 2, 0, 0, 2, 0, 0, 0, 8, 0, 0, 0, 0, 2, 0, 0, 0, 0, 0, 0, 8, 0, 0, 0, 0, 17, 0, 0, 0, 0, 0, 0, 0, 0, 0, 0, 0, 0, 0, 0, 0, 8, 0, 0, 0, 0, 8, 0, 0, 8, 0, 0, 0, 0, 0, 0, 0, 0, 0, 17, 0, 2, 0, 0, 0, 0, 2, 0, 0, 0],[0, 0, 0, 0, 18, 0, 0, 0, 0, 0, 0, 0, 19, 0, 0, 0, 0, 0, 0, 20, 0, 0, 0, 0, 19, 0, 0, 0, 0, 0, 0, 0, 0, 0, 0, 19, 0, 20, 0, 3, 3, 0, 0, 0, 0, 3, 0, 0, 3, 0, 0, 0, 0, 18, 0, 0, 0, 0, 18, 0, 0, 18, 3, 0, 0, 0, 19, 0, 0, 19, 20, 0, 0, 0, 0, 0, 0, 0, 0, 0, 0, 0, 18, 0, 19, 0, 19, 0, 0, 0, 0, 0, 0, 19, 19, 19, 0, 0, 0, 0],[],[],[],[],[0, 0, 4, 15, 0, 0, 0, 0, 1, 0, 0, 0, 0, 0, 0, 0, 0, 0, 1, 0, 0, 0, 0, 1, 0, 15, 0, 0, 0, 0, 0, 0, 0, 0, 0, 0, 15, 0, 0, 0, 0, 0, 15, 0, 0, 0, 15, 0, 0, 0, 0, 0, 15, 0, 0, 0, 4, 0, 0, 12, 0, 0, 0, 12, 0, 12, 0, 12, 0, 0, 0, 0, 0, 0, 0, 0, 0, 4, 12, 0, 0, 15, 0, 15, 0, 0, 0, 0, 0, 0, 0, 0, 0, 0, 0, 0, 0, 0, 0, 0],[],[],[],[],[],[6, 7, 0, 0, 0, 0, 0, 0, 0, 0, 0, 0, 0, 6, 0, 7, 0, 10, 0, 0, 0, 0, 0, 0, 0, 0, 0, 0, 0, 10, 7, 0, 0, 13, 0, 0, 0, 0, 0, 0, 0, 0, 0, 0, 0, 0, 0, 6, 0, 0, 0, 10, 0, 0, 7, 0, 0, 0, 0, 0, 7, 0, 0, 0, 0, 0, 0, 0, 10, 0, 0, 0, 13, 0, 6, 0, 0, 0, 0, 0, 0, 0, 0, 0, 0, 7, 0, 7, 6, 0, 0, 0, 6, 0, 0, 0, 0, 7, 0, 10][18, 23, 8],[43, 91, 6, 34, 31, 22, 96],[39, 40, 45, 62, 48],[56, 77, 2],[16, 20, 9, 26],[88, 13, 0, 74, 92, 47],[30, 15, 85, 54, 1, 87, 97, 60],[76, 71, 50, 79, 21, 38],[49, 41, 10, 98, 44],[51, 29, 17, 68, 99],[7, 75, 11, 73, 32, 80],[67, 65, 78, 63, 59],[72, 33],[90, 27, 28],[42, 81, 46, 25, 3, 83, 52, 36],[64, 14, 57],[55, 5, 89],[61, 58, 4, 53, 82],[86, 12, 66, 35, 24, 95, 93, 69, 94, 84],[19, 70, 37]
